
Gurobi 7.0.2 (linux64, Matlab) logging started Sun Sep  2 08:55:51 2018


Gurobi 7.0.2 (linux64) logging started Sun Sep  2 08:55:51 2018

Optimize a model with 99385 rows, 99462 columns and 593332 nonzeros
Coefficient statistics:
  Matrix range     [1e+00, 1e+03]
  Objective range  [5e+00, 2e+03]
  Bounds range     [4e-01, 4e+02]
  RHS range        [1e+00, 4e+02]
Iteration    Objective       Primal Inf.    Dual Inf.      Time
       0    2.4629000e+04   0.000000e+00   0.000000e+00      0s

Solved in 0 iterations and 0.04 seconds
Optimal objective  2.462900000e+04
